Geographic Exponential Decay
40 199 137 309 105 186 293 39 244 106 311 170 206 305 40 159 178 315 112 124 197 16 214 21 149 50 115 101 68 44 193 62 144 253 5 229 32 273 11 212 211
p edge 320 327
e 0 143 5.0
e 1 131 2.0
e 1 0 2.0
e 2 84 1.0
e 2 1 4.0
e 3 289 1.0
e 3 2 5.0
e 4 311 4.0
e 4 3 5.0
e 5 132 82.0
e 5 80 47.0
e 5 114 88.0
e 5 204 26.0
e 5 60 3.0
e 5 4 37.0
e 6 7 3.0
e 6 5 98.0
e 8 234 1.0
e 8 6 1.0
e 9 166 1.0
e 9 8 2.0
e 10 237 4.0
e 10 9 9.0
e 11 190 94.0
e 11 262 52.0
e 11 12 86.0
e 11 81 5.0
e 11 33 28.0
e 11 10 20.0
e 13 136 13.0
e 13 11 46.0
e 14 107 3.0
e 14 13 1.0
e 15 77 9.0
e 15 28 22.0
e 15 14 7.0
e 16 206 27.0
e 16 58 22.0
e 16 55 50.0
e 16 284 11.0
e 16 235 71.0
e 16 15 37.0
e 17 297 2.0
e 17 16 60.0
e 18 71 1.0
e 18 17 1.0
e 19 44 76.0
e 19 18 2.0
e 20 149 34.0
e 21 127 84.0
e 21 128 72.0
e 21 258 15.0
e 21 158 9.0
e 21 22 75.0
e 21 19 87.0
e 23 179 1.0
e 23 21 86.0
e 24 311 35.0
e 25 141 2.0
e 25 23 2.0
e 26 178 21.0
e 27 121 6.0
e 27 25 1.0
e 29 142 12.0
e 29 27 5.0
e 30 212 30.0
e 31 32 59.0
e 32 292 35.0
e 32 307 33.0
e 32 106 42.0
e 32 219 4.0
e 34 224 4.0
e 34 29 1.0
e 35 45 1.0
e 35 34 1.0
e 36 115 9.0
e 36 35 2.0
e 37 168 1.0
e 37 36 2.0
e 38 102 2.0
e 38 37 2.0
e 39 40 45.0
e 39 205 95.0
e 39 78 34.0
e 39 101 61.0
e 39 233 87.0
e 40 96 60.0
e 40 103 12.0
e 40 304 15.0
e 40 59 77.0
e 41 196 5.0
e 41 38 1.0
e 42 220 12.0
e 42 41 1.0
e 43 109 5.0
e 43 42 7.0
e 44 46 88.0
e 44 67 98.0
e 44 112 18.0
e 44 68 84.0
e 47 315 35.0
e 48 251 1.0
e 48 43 4.0
e 49 172 6.0
e 49 48 5.0
e 50 51 96.0
e 50 178 48.0
e 50 134 99.0
e 50 64 95.0
e 50 52 47.0
e 53 129 1.0
e 53 49 1.0
e 54 56 1.0
e 54 53 8.0
e 57 191 4.0
e 61 169 1.0
e 61 54 8.0
e 62 177 91.0
e 62 108 69.0
e 62 90 81.0
e 62 65 41.0
e 62 63 65.0
e 62 61 24.0
e 66 199 34.0
e 67 68 87.0
e 68 151 25.0
e 68 260 65.0
e 68 165 80.0
e 69 70 3.0
e 69 62 45.0
e 72 244 28.0
e 72 69 4.0
e 73 306 24.0
e 73 87 18.0
e 73 72 1.0
e 74 236 2.0
e 74 73 19.0
e 75 202 3.0
e 75 74 3.0
e 76 252 4.0
e 76 75 3.0
e 79 277 38.0
e 79 97 23.0
e 79 82 45.0
e 79 76 29.0
e 83 276 9.0
e 83 79 23.0
e 85 178 30.0
e 86 88 4.0
e 86 83 2.0
e 88 89 19.0
e 91 278 1.0
e 91 86 4.0
e 92 93 2.0
e 92 91 1.0
e 94 95 1.0
e 94 92 3.0
e 98 281 1.0
e 98 94 1.0
e 99 100 3.0
e 99 98 2.0
e 101 293 16.0
e 101 229 11.0
e 101 103 66.0
e 101 316 99.0
e 104 188 5.0
e 104 99 2.0
e 105 298 72.0
e 105 180 54.0
e 105 263 83.0
e 105 106 33.0
e 105 170 79.0
e 106 239 56.0
e 106 264 32.0
e 106 221 13.0
e 109 110 4.0
e 111 313 1.0
e 111 104 3.0
e 112 189 79.0
e 112 228 89.0
e 112 203 2.0
e 112 137 33.0
e 113 286 2.0
e 113 111 3.0
e 115 116 65.0
e 115 279 50.0
e 115 312 5.0
e 115 275 68.0
e 117 290 2.0
e 117 113 1.0
e 118 119 1.0
e 118 117 1.0
e 120 294 1.0
e 120 118 2.0
e 122 200 18.0
e 123 124 40.0
e 123 120 2.0
e 124 238 12.0
e 124 282 9.0
e 124 280 68.0
e 124 125 100.0
e 126 206 30.0
e 130 133 2.0
e 130 123 1.0
e 135 296 1.0
e 135 130 6.0
e 136 163 20.0
e 137 265 42.0
e 137 181 71.0
e 137 257 45.0
e 137 167 30.0
e 138 223 21.0
e 138 135 5.0
e 139 223 16.0
e 140 253 62.0
e 140 138 1.0
e 142 225 22.0
e 144 197 70.0
e 144 315 97.0
e 144 145 33.0
e 144 293 93.0
e 144 146 53.0
e 147 299 6.0
e 147 140 11.0
e 148 287 17.0
e 149 170 34.0
e 149 150 55.0
e 149 272 40.0
e 149 171 83.0
e 152 153 1.0
e 152 147 1.0
e 154 155 2.0
e 154 152 3.0
e 156 314 1.0
e 156 154 3.0
e 157 206 15.0
e 159 200 65.0
e 159 191 66.0
e 159 315 44.0
e 159 170 57.0
e 159 160 95.0
e 161 266 11.0
e 161 156 1.0
e 162 164 1.0
e 162 161 1.0
e 170 173 23.0
e 170 283 26.0
e 174 210 39.0
e 175 176 10.0
e 175 162 8.0
e 178 182 7.0
e 178 293 36.0
e 183 291 1.0
e 183 175 9.0
e 184 192 3.0
e 184 183 1.0
e 185 293 58.0
e 186 187 92.0
e 186 193 85.0
e 186 222 66.0
e 186 194 13.0
e 186 285 23.0
e 193 195 75.0
e 193 197 63.0
e 193 198 48.0
e 193 274 65.0
e 197 199 16.0
e 197 241 67.0
e 197 288 35.0
e 199 303 75.0
e 199 200 44.0
e 199 201 67.0
e 204 230 11.0
e 206 207 71.0
e 206 240 93.0
e 208 209 2.0
e 208 184 10.0
e 210 295 9.0
e 210 211 72.0
e 211 212 79.0
e 211 300 28.0
e 211 315 10.0
e 211 213 46.0
e 212 214 12.0
e 212 215 46.0
e 212 216 27.0
e 214 217 38.0
e 214 315 26.0
e 214 218 36.0
e 214 226 69.0
e 227 229 8.0
e 229 231 23.0
e 229 232 29.0
e 229 242 35.0
e 243 244 34.0
e 244 245 47.0
e 244 246 52.0
e 244 247 15.0
e 247 287 10.0
e 248 249 1.0
e 248 208 9.0
e 250 253 30.0
e 253 259 51.0
e 253 254 60.0
e 253 255 79.0
e 256 301 1.0
e 256 248 2.0
e 261 267 3.0
e 261 256 1.0
e 268 269 9.0
e 268 261 1.0
e 270 271 4.0
e 270 268 6.0
e 273 293 53.0
e 273 302 71.0
e 273 305 53.0
e 273 308 83.0
e 273 309 99.0
e 302 305 72.0
e 302 309 22.0
e 305 309 12.0
e 305 310 94.0
e 305 311 17.0
e 309 311 79.0
e 309 317 55.0
e 311 318 53.0
e 319 270 1.0
